     Program PWSCF v.6.8 starts on 24Oct2021 at 14:11:54

     Reading input from value-of-a-in.2.47.in

     Current dimensions of program PWSCF are:
     Max number of different atomic species (ntypx) = 10
     Max number of k-points (npk) =  40000
     Max angular momentum in pseudopotentials (lmaxx) =  4

     DFT-D3 Dispersion Correction (3-body terms):
       Reference C6 values for interpolation:

         atom   Coordination number   C6
         C          0.000            98.23
         C          0.987            86.49
         C          1.998            58.72
         C          2.999            51.56
         C          3.984            36.41

       Values used:

         atom   Coordination number  R0_AB[au]  C6      C8
         C          3.318            2.750     48.21   1394.41
         C          3.317            2.750     48.22   1394.67
         C          3.317            2.750     48.22   1394.67
         C          3.318            2.750     48.21   1394.41

         Molecular C6 ( Ry / a.u.^6 ) =       771.48

     Using Slab Decomposition

     bravais-lattice index     =            4
     lattice parameter (alat)  =       4.6676  a.u.
     unit-cell volume          =     238.1758 (a.u.)^3
     number of atoms/cell      =            4
     number of atomic types    =            1
     number of electrons       =        16.00
     number of Kohn-Sham states=            8
     kinetic-energy cutoff     =     120.0000  Ry
     charge density cutoff     =     480.0000  Ry
     scf convergence threshold =      4.0E-09
     mixing beta               =       0.4000
     number of iterations used =            8  plain     mixing
     energy convergence thresh.=      2.0E-04
     force convergence thresh. =      1.0E-04
     press convergence thresh. =      5.0E-01
     Exchange-correlation= PBE
                           (   1   4   3   4   0   0   0)
     nstep                     =          300

     celldm(1)=   4.667624  celldm(2)=   0.000000  celldm(3)=   2.704453
     celldm(4)=   0.000000  celldm(5)=   0.000000  celldm(6)=   0.000000

     crystal axes: (cart. coord. in units of alat)
               a(1) = (   1.000000   0.000000   0.000000 )
               a(2) = (  -0.500000   0.866025   0.000000 )
               a(3) = (   0.000000   0.000000   2.704453 )

     reciprocal axes: (cart. coord. in units 2 pi/alat)
               b(1) = (  1.000000  0.577350 -0.000000 )
               b(2) = (  0.000000  1.154701  0.000000 )
               b(3) = (  0.000000 -0.000000  0.369760 )

     PseudoPot. # 1 for C  read from file:
     /home/alexandro/q-e-qe-6.8/pseudo/C.upf
     MD5 check sum: 34a24e64c0a39f27c6c36b90a16ac686
     Pseudo is Norm-conserving + core correction, Zval =  4.0
     Generated using ONCVPSP code by D. R. Hamann
     Using radial grid of 1248 points,  4 beta functions with:
                l(1) =   0
                l(2) =   0
                l(3) =   1
                l(4) =   1

     atomic species   valence    mass     pseudopotential
        C              4.00    12.01100     C ( 1.00)

      4 Sym. Ops. (no inversion) found ( 2 have fractional translation)

                                    s                        frac. trans.

      isym =  1     identity

 cryst.   s( 1) = (     1          0          0      )
                  (     0          1          0      )
                  (     0          0          1      )

 cart.    s( 1) = (  1.0000000  0.0000000  0.0000000 )
                  (  0.0000000  1.0000000  0.0000000 )
                  (  0.0000000  0.0000000  1.0000000 )

      isym =  2     180 deg rotation - cryst. axis [1,1,0]

 cryst.   s( 2) = (     0          1          0      )    f =(  0.0000000 )
                  (     1          0          0      )       (  0.0000000 )
                  (     0          0         -1      )       (  0.5000000 )

 cart.    s( 2) = ( -0.5000000  0.8660254  0.0000000 )    f =(  0.0000000 )
                  (  0.8660254  0.5000000  0.0000000 )       (  0.0000000 )
                  (  0.0000000  0.0000000 -1.0000000 )       (  1.3522267 )

      isym =  3     inv. 180 deg rotation - cart. axis [0,0,1]

[...]

      isym =  4     inv. 180 deg rotation - cryst. axis [1,-1,0]

[...]

     point group C_2v (mm2)
     there are  4 classes
     the character table:

       E     C2    s_v   s_v'
A_1    1.00  1.00  1.00  1.00
A_2    1.00  1.00 -1.00 -1.00
B_1    1.00 -1.00  1.00 -1.00
B_2    1.00 -1.00 -1.00  1.00

     the symmetry operations in each class and the name of the first element:

     E        1
          identity
     C2       2
          180 deg rotation - cryst. axis [1,1,0]
     s_v      3
          inv. 180 deg rotation - cart. axis [0,0,1]
     s_v'     4
          inv. 180 deg rotation - cryst. axis [1,-1,0]

   Cartesian axes

     site n.     atom                  positions (alat units)
         1           C   tau(   1) = (   0.0000000   0.0000000   0.0000000  )
         2           C   tau(   2) = (   0.0000000   0.5767729   0.0000000  )
         3           C   tau(   3) = (   0.4995000   0.2883865   1.3522267  )
         4           C   tau(   4) = (   0.5000000   0.8660254   1.3522267  )

   Crystallographic axes

     site n.     atom                  positions (cryst. coord.)
         1           C   tau(   1) = (  0.0000000  0.0000000  0.0000000  )
         2           C   tau(   2) = (  0.3330000  0.6660000  0.0000000  )
         3           C   tau(   3) = (  0.6660000  0.3330000  0.5000000  )
         4           C   tau(   4) = (  1.0000000  1.0000000  0.5000000  )

     number of k points=   105
                       cart. coord. in units 2pi/alat
        k(    1) = (   0.0000000   0.0000000   0.0000000), wk =   0.0039062
        k(    2) = (   0.0000000   0.0000000   0.0462201), wk =   0.0078125
        k(    3) = (   0.0000000   0.0000000   0.0924401), wk =   0.0078125
        k(    4) = (   0.0000000   0.0000000   0.1386602), wk =   0.0078125
        k(    5) = (   0.0000000   0.0000000  -0.1848802), wk =   0.0039062
        k(    6) = (   0.0000000   0.1443376   0.0000000), wk =   0.0156250
        k(    7) = (   0.0000000   0.1443376   0.0462201), wk =   0.0312500
        k(    8) = (   0.0000000   0.1443376   0.0924401), wk =   0.0312500
        k(    9) = (   0.0000000   0.1443376   0.1386602), wk =   0.0312500
        k(   10) = (   0.0000000   0.1443376  -0.1848802), wk =   0.0156250
        k(   11) = (   0.0000000   0.2886751   0.0000000), wk =   0.0156250
        k(   12) = (   0.0000000   0.2886751   0.0462201), wk =   0.0312500
        k(   13) = (   0.0000000   0.2886751   0.0924401), wk =   0.0312500
        k(   14) = (   0.0000000   0.2886751   0.1386602), wk =   0.0312500
        k(   15) = (   0.0000000   0.2886751  -0.1848802), wk =   0.0156250
        k(   16) = (   0.0000000   0.4330127   0.0000000), wk =   0.0156250
        k(   17) = (   0.0000000   0.4330127   0.0462201), wk =   0.0312500
        k(   18) = (   0.0000000   0.4330127   0.0924401), wk =   0.0312500
        k(   19) = (   0.0000000   0.4330127   0.1386602), wk =   0.0312500
        k(   20) = (   0.0000000   0.4330127  -0.1848802), wk =   0.0156250
        k(   21) = (   0.0000000  -0.5773503   0.0000000), wk =   0.0078125
        k(   22) = (   0.0000000  -0.5773503   0.0462201), wk =   0.0156250
        k(   23) = (   0.0000000  -0.5773503   0.0924401), wk =   0.0156250
        k(   24) = (   0.0000000  -0.5773503   0.1386602), wk =   0.0156250
        k(   25) = (   0.0000000  -0.5773503  -0.1848802), wk =   0.0078125
        k(   26) = (   0.1250000   0.2165064   0.0000000), wk =   0.0078125
        k(   27) = (   0.1250000   0.2165064   0.0462201), wk =   0.0156250
        k(   28) = (   0.1250000   0.2165064   0.0924401), wk =   0.0156250
        k(   29) = (   0.1250000   0.2165064   0.1386602), wk =   0.0156250
        k(   30) = (   0.1250000   0.2165064  -0.1848802), wk =   0.0078125
        k(   31) = (   0.1250000   0.3608439   0.0000000), wk =   0.0156250
        k(   32) = (   0.1250000   0.3608439   0.0462201), wk =   0.0312500
        k(   33) = (   0.1250000   0.3608439   0.0924401), wk =   0.0312500
        k(   34) = (   0.1250000   0.3608439   0.1386602), wk =   0.0312500
        k(   35) = (   0.1250000   0.3608439  -0.1848802), wk =   0.0156250
        k(   36) = (   0.1250000   0.5051815   0.0000000), wk =   0.0156250
        k(   37) = (   0.1250000   0.5051815   0.0462201), wk =   0.0312500
        k(   38) = (   0.1250000   0.5051815   0.0924401), wk =   0.0312500
        k(   39) = (   0.1250000   0.5051815   0.1386602), wk =   0.0312500
        k(   40) = (   0.1250000   0.5051815  -0.1848802), wk =   0.0156250
        k(   41) = (   0.2500000   0.4330127   0.0000000), wk =   0.0078125
        k(   42) = (   0.2500000   0.4330127   0.0462201), wk =   0.0156250
        k(   43) = (   0.2500000   0.4330127   0.0924401), wk =   0.0156250
        k(   44) = (   0.2500000   0.4330127   0.1386602), wk =   0.0156250
        k(   45) = (   0.2500000   0.4330127  -0.1848802), wk =   0.0078125
        k(   46) = (   0.2500000   0.5773503   0.0000000), wk =   0.0156250
        k(   47) = (   0.2500000   0.5773503   0.0462201), wk =   0.0312500
        k(   48) = (   0.2500000   0.5773503   0.0924401), wk =   0.0312500
        k(   49) = (   0.2500000   0.5773503   0.1386602), wk =   0.0312500
        k(   50) = (   0.2500000   0.5773503  -0.1848802), wk =   0.0156250
        k(   51) = (  -0.1250000   0.0721688   0.0000000), wk =   0.0078125
        k(   52) = (  -0.1250000   0.0721688   0.0462201), wk =   0.0156250
        k(   53) = (  -0.1250000   0.0721688   0.0924401), wk =   0.0156250
        k(   54) = (  -0.1250000   0.0721688   0.1386602), wk =   0.0156250
        k(   55) = (  -0.1250000   0.0721688  -0.1848802), wk =   0.0078125
        k(   56) = (  -0.2500000   0.1443376   0.0000000), wk =   0.0078125
        k(   57) = (  -0.2500000   0.1443376   0.0462201), wk =   0.0156250
        k(   58) = (  -0.2500000   0.1443376   0.0924401), wk =   0.0156250
        k(   59) = (  -0.2500000   0.1443376   0.1386602), wk =   0.0156250
        k(   60) = (  -0.2500000   0.1443376  -0.1848802), wk =   0.0078125
[...]
        k(   91) = (   0.5000000   0.1443376   0.0924401), wk =   0.0312500
        k(   92) = (  -0.3750000   0.3608439   0.1386602), wk =   0.0312500
        k(   93) = (   0.5000000   0.1443376   0.1386602), wk =   0.0312500
        k(   94) = (  -0.3750000   0.3608439  -0.1848802), wk =   0.0156250
        k(   95) = (   0.5000000   0.1443376  -0.1848802), wk =   0.0156250
        k(   96) = (  -0.2500000   0.4330127   0.0000000), wk =   0.0156250
        k(   97) = (  -0.2500000   0.4330127   0.0462201), wk =   0.0312500
        k(   98) = (  -0.2500000   0.4330127   0.0924401), wk =   0.0312500
        k(   99) = (  -0.2500000   0.4330127   0.1386602), wk =   0.0312500
        k(  100) = (  -0.2500000   0.4330127  -0.1848802), wk =   0.0156250
        k(  101) = (  -0.3750000   0.5051815   0.0000000), wk =   0.0078125
        k(  102) = (  -0.3750000   0.5051815   0.0462201), wk =   0.0156250
[...]
        k(   21) = (   0.0000016  -0.5783703   0.0000000), wk =   0.0078125
        k(   22) = (   0.0000016  -0.5783703   0.0442063), wk =   0.0156250
        k(   23) = (   0.0000016  -0.5783703   0.0884126), wk =   0.0156250
        k(   24) = (   0.0000016  -0.5783703   0.1326189), wk =   0.0156250
        k(   25) = (   0.0000016  -0.5783703  -0.1768253), wk =   0.0078125
        k(   26) = (   0.1252207   0.2168885   0.0000000), wk =   0.0078125
        k(   27) = (   0.1252207   0.2168885   0.0442063), wk =   0.0156250
        k(   28) = (   0.1252207   0.2168885   0.0884126), wk =   0.0156250
        k(   29) = (   0.1252207   0.2168885   0.1326189), wk =   0.0156250
        k(   30) = (   0.1252207   0.2168885  -0.1768253), wk =   0.0078125
        k(   31) = (   0.1252203   0.3614811   0.0000000), wk =   0.0156250
        k(   32) = (   0.1252203   0.3614811   0.0442063), wk =   0.0312500
        k(   33) = (   0.1252203   0.3614811   0.0884126), wk =   0.0312500
        k(   34) = (   0.1252203   0.3614811   0.1326189), wk =   0.0312500
        k(   35) = (   0.1252203   0.3614811  -0.1768253), wk =   0.0156250
        k(   36) = (   0.1252199   0.5060737   0.0000000), wk =   0.0156250
        k(   37) = (   0.1252199   0.5060737   0.0442063), wk =   0.0312500
        k(   38) = (   0.1252199   0.5060737   0.0884126), wk =   0.0312500
        k(   39) = (   0.1252199   0.5060737   0.1326189), wk =   0.0312500
        k(   40) = (   0.1252199   0.5060737  -0.1768253), wk =   0.0156250
        k(   41) = (   0.2504413   0.4337771   0.0000000), wk =   0.0078125
        k(   42) = (   0.2504413   0.4337771   0.0442063), wk =   0.0156250
        k(   43) = (   0.2504413   0.4337771   0.0884126), wk =   0.0156250
        k(   44) = (   0.2504413   0.4337771   0.1326189), wk =   0.0156250
        k(   45) = (   0.2504413   0.4337771  -0.1768253), wk =   0.0078125
        k(   46) = (   0.2504409   0.5783696   0.0000000), wk =   0.0156250
        k(   47) = (   0.2504409   0.5783696   0.0442063), wk =   0.0312500
        k(   48) = (   0.2504409   0.5783696   0.0884126), wk =   0.0312500
        k(   49) = (   0.2504409   0.5783696   0.1326189), wk =   0.0312500
        k(   50) = (   0.2504409   0.5783696  -0.1768253), wk =   0.0156250
        k(   51) = (  -0.1252214   0.0722966  -0.0000000), wk =   0.0078125
        k(   52) = (  -0.1252214   0.0722966   0.0442063), wk =   0.0156250
        k(   53) = (  -0.1252214   0.0722966   0.0884126), wk =   0.0156250
        k(   54) = (  -0.1252214   0.0722966   0.1326189), wk =   0.0156250
        k(   55) = (  -0.1252214   0.0722966  -0.1768253), wk =   0.0078125
        k(   56) = (  -0.2504429   0.1445933  -0.0000000), wk =   0.0078125
        k(   57) = (  -0.2504429   0.1445933   0.0442063), wk =   0.0156250
        k(   58) = (  -0.2504429   0.1445933   0.0884126), wk =   0.0156250
        k(   59) = (  -0.2504429   0.1445933   0.1326189), wk =   0.0156250
        k(   60) = (  -0.2504429   0.1445933  -0.1768253), wk =   0.0078125
[...]
        k(   91) = (   0.5008846   0.1445912   0.0884126), wk =   0.0312500
        k(   92) = (  -0.3756647   0.3614825   0.1326189), wk =   0.0312500
        k(   93) = (   0.5008846   0.1445912   0.1326189), wk =   0.0312500
        k(   94) = (  -0.3756647   0.3614825  -0.1768253), wk =   0.0156250
        k(   95) = (   0.5008846   0.1445912  -0.1768253), wk =   0.0156250
        k(   96) = (  -0.2504436   0.4337784  -0.0000000), wk =   0.0156250
        k(   97) = (  -0.2504436   0.4337784   0.0442063), wk =   0.0312500
        k(   98) = (  -0.2504436   0.4337784   0.0884126), wk =   0.0312500
        k(   99) = (  -0.2504436   0.4337784   0.1326189), wk =   0.0312500
        k(  100) = (  -0.2504436   0.4337784  -0.1768253), wk =   0.0156250
        k(  101) = (  -0.3756651   0.5060750  -0.0000000), wk =   0.0078125
        k(  102) = (  -0.3756651   0.5060750   0.0442063), wk =   0.0156250
        k(  103) = (  -0.3756651   0.5060750   0.0884126), wk =   0.0156250
        k(  104) = (  -0.3756651   0.5060750   0.1326189), wk =   0.0156250
        k(  105) = (  -0.3756651   0.5060750  -0.1768253), wk =   0.0078125

                       cryst. coord.
        k(    1) = (   0.0000000   0.0000000   0.0000000), wk =   0.0039062
        k(    2) = (  -0.0000000  -0.0000000   0.1250000), wk =   0.0078125
        k(    3) = (  -0.0000000  -0.0000000   0.2500000), wk =   0.0078125
        k(    4) = (   0.0000000  -0.0000000   0.3750000), wk =   0.0078125
        k(    5) = (   0.0000000   0.0000000  -0.5000000), wk =   0.0039062
        k(    6) = (   0.0000000   0.1250000  -0.0000000), wk =   0.0156250
        k(    7) = (   0.0000000   0.1250000   0.1250000), wk =   0.0312500
        k(    8) = (   0.0000000   0.1250000   0.2500000), wk =   0.0312500
        k(    9) = (   0.0000000   0.1250000   0.3750000), wk =   0.0312500
        k(   10) = (   0.0000000   0.1250000  -0.5000000), wk =   0.0156250
        k(   11) = (   0.0000000   0.2500000  -0.0000000), wk =   0.0156250
        k(   12) = (   0.0000000   0.2500000   0.1250000), wk =   0.0312500
        k(   13) = (   0.0000000   0.2500000   0.2500000), wk =   0.0312500
        k(   14) = (   0.0000000   0.2500000   0.3750000), wk =   0.0312500
        k(   15) = (   0.0000000   0.2500000  -0.5000000), wk =   0.0156250
        k(   16) = (  -0.0000000   0.3750000   0.0000000), wk =   0.0156250
        k(   17) = (  -0.0000000   0.3750000   0.1250000), wk =   0.0312500
        k(   18) = (  -0.0000000   0.3750000   0.2500000), wk =   0.0312500
        k(   19) = (  -0.0000000   0.3750000   0.3750000), wk =   0.0312500
        k(   20) = (  -0.0000000   0.3750000  -0.5000000), wk =   0.0156250
        k(   21) = (  -0.0000000  -0.5000000   0.0000000), wk =   0.0078125
        k(   22) = (  -0.0000000  -0.5000000   0.1250000), wk =   0.0156250
        k(   23) = (  -0.0000000  -0.5000000   0.2500000), wk =   0.0156250
        k(   24) = (  -0.0000000  -0.5000000   0.3750000), wk =   0.0156250
        k(   25) = (  -0.0000000  -0.5000000  -0.5000000), wk =   0.0078125
        k(   26) = (   0.1250000   0.1250000  -0.0000000), wk =   0.0078125
        k(   27) = (   0.1250000   0.1250000   0.1250000), wk =   0.0156250
        k(   28) = (   0.1250000   0.1250000   0.2500000), wk =   0.0156250
        k(   29) = (   0.1250000   0.1250000   0.3750000), wk =   0.0156250
        k(   30) = (   0.1250000   0.1250000  -0.5000000), wk =   0.0078125
        k(   31) = (   0.1250000   0.2500000   0.0000000), wk =   0.0156250
        k(   32) = (   0.1250000   0.2500000   0.1250000), wk =   0.0312500
        k(   33) = (   0.1250000   0.2500000   0.2500000), wk =   0.0312500
        k(   34) = (   0.1250000   0.2500000   0.3750000), wk =   0.0312500
        k(   35) = (   0.1250000   0.2500000  -0.5000000), wk =   0.0156250
        k(   36) = (   0.1250000   0.3750000   0.0000000), wk =   0.0156250
        k(   37) = (   0.1250000   0.3750000   0.1250000), wk =   0.0312500
        k(   38) = (   0.1250000   0.3750000   0.2500000), wk =   0.0312500
        k(   39) = (   0.1250000   0.3750000   0.3750000), wk =   0.0312500
        k(   40) = (   0.1250000   0.3750000  -0.5000000), wk =   0.0156250
        k(   41) = (   0.2500000   0.2500000  -0.0000000), wk =   0.0078125
        k(   42) = (   0.2500000   0.2500000   0.1250000), wk =   0.0156250
        k(   43) = (   0.2500000   0.2500000   0.2500000), wk =   0.0156250
        k(   44) = (   0.2500000   0.2500000   0.3750000), wk =   0.0156250
        k(   45) = (   0.2500000   0.2500000  -0.5000000), wk =   0.0078125
        k(   46) = (   0.2500000   0.3750000  -0.0000000), wk =   0.0156250
        k(   47) = (   0.2500000   0.3750000   0.1250000), wk =   0.0312500
        k(   48) = (   0.2500000   0.3750000   0.2500000), wk =   0.0312500
        k(   49) = (   0.2500000   0.3750000   0.3750000), wk =   0.0312500
        k(   50) = (   0.2500000   0.3750000  -0.5000000), wk =   0.0156250
        k(   51) = (  -0.1250000   0.1250000  -0.0000000), wk =   0.0078125
        k(   52) = (  -0.1250000   0.1250000   0.1250000), wk =   0.0156250
        k(   53) = (  -0.1250000   0.1250000   0.2500000), wk =   0.0156250
        k(   54) = (  -0.1250000   0.1250000   0.3750000), wk =   0.0156250
        k(   55) = (  -0.1250000   0.1250000  -0.5000000), wk =   0.0078125
        k(   56) = (  -0.2500000   0.2500000  -0.0000000), wk =   0.0078125
        k(   57) = (  -0.2500000   0.2500000   0.1250000), wk =   0.0156250
        k(   58) = (  -0.2500000   0.2500000   0.2500000), wk =   0.0156250
        k(   59) = (  -0.2500000   0.2500000   0.3750000), wk =   0.0156250
        k(   60) = (  -0.2500000   0.2500000  -0.5000000), wk =   0.0078125
[...]
        k(   91) = (   0.5000000  -0.1250000   0.2500000), wk =   0.0312500
        k(   92) = (  -0.3750000   0.5000000   0.3750000), wk =   0.0312500
        k(   93) = (   0.5000000  -0.1250000   0.3750000), wk =   0.0312500
        k(   94) = (  -0.3750000   0.5000000  -0.5000000), wk =   0.0156250
        k(   95) = (   0.5000000  -0.1250000  -0.5000000), wk =   0.0156250
        k(   96) = (  -0.2500000   0.5000000   0.0000000), wk =   0.0156250
        k(   97) = (  -0.2500000   0.5000000   0.1250000), wk =   0.0312500
        k(   98) = (  -0.2500000   0.5000000   0.2500000), wk =   0.0312500
        k(   99) = (  -0.2500000   0.5000000   0.3750000), wk =   0.0312500
        k(  100) = (  -0.2500000   0.5000000  -0.5000000), wk =   0.0156250
        k(  101) = (  -0.3750000   0.6250000   0.0000000), wk =   0.0078125
        k(  102) = (  -0.3750000   0.6250000   0.1250000), wk =   0.0156250
        k(  103) = (  -0.3750000   0.6250000   0.2500000), wk =   0.0156250
        k(  104) = (  -0.3750000   0.6250000   0.3750000), wk =   0.0156250
        k(  105) = (  -0.3750000   0.6250000  -0.5000000), wk =   0.0078125

     Initial potential from superposition of free atoms

     starting charge   15.99982, renormalised to   16.00000
     Starting wfcs are   16 randomized atomic wfcs

     Self-consistent Calculation

[...]

     total energy              =     -48.21410789 Ry
     estimated scf accuracy    <          5.7E-11 Ry

     iteration # 14     ecut=   120.00 Ry     beta= 0.40
     Davidson diagonalization with overlap

     ethr =  3.54E-13,  avg # of iterations =  4.3

     End of self-consistent calculation

[...]

          k = 0.5009 0.1446-0.1768 (  5532 PWs)   bands (ev):

[...]

          k =-0.3757 0.5061-0.1768 (  5510 PWs)   bands (ev):

[...]

     occupation numbers
     1.0000   1.0000   1.0000   1.0000   1.0000   1.0000   1.0000   1.0000

     highest occupied level (ev):     5.7585

!    total energy              =     -48.21410789 Ry
     estimated scf accuracy    <          2.2E-11 Ry

     The total energy is the sum of the following terms:
     one-electron contribution =     -13.78783324 Ry
     hartree contribution      =      14.77772665 Ry
     xc contribution           =     -17.16871226 Ry
     ewald contribution        =     -32.01117282 Ry
     DFT-D3 Dispersion         =      -0.02411622 Ry

     convergence has been achieved in  14 iterations

     Forces acting on atoms (cartesian axes, Ry/au):

     atom    1 type  1   force =    -0.00004776    0.00001980   -0.00000000
     atom    2 type  1   force =     0.00004644   -0.00001904    0.00000000
     atom    3 type  1   force =    -0.00003971    0.00003070   -0.00000000
     atom    4 type  1   force =     0.00004103   -0.00003146    0.00000000
     The non-local contrib.  to forces
     atom    1 type  1   force =    -0.00003235    0.00001356   -0.00000000
     atom    2 type  1   force =     0.00003171   -0.00001319    0.00000000
     atom    3 type  1   force =    -0.00002728    0.00002087   -0.00000000
     atom    4 type  1   force =     0.00002792   -0.00002124    0.00000000
     The ionic contribution  to forces
     atom    1 type  1   force =    -0.00018311    0.00008087    0.00000000
     atom    2 type  1   force =     0.00018144   -0.00007991    0.00000000
     atom    3 type  1   force =    -0.00015992    0.00011718   -0.00000000
     atom    4 type  1   force =     0.00016159   -0.00011814   -0.00000000
     The local contribution  to forces
     atom    1 type  1   force =     0.00016455   -0.00007327    0.00000000
     atom    2 type  1   force =    -0.00016360    0.00007272    0.00000000
     atom    3 type  1   force =     0.00014478   -0.00010533   -0.00000000
     atom    4 type  1   force =    -0.00014573    0.00010587   -0.00000000
     The core correction contribution to forces
     atom    1 type  1   force =     0.00000313   -0.00000136    0.00000000
     atom    2 type  1   force =    -0.00000313    0.00000135    0.00000000
     atom    3 type  1   force =     0.00000274   -0.00000203    0.00000000
     atom    4 type  1   force =    -0.00000274    0.00000204    0.00000000
     The Hubbard contrib.    to forces
     atom    1 type  1   force =     0.00000000    0.00000000    0.00000000
     atom    2 type  1   force =     0.00000000    0.00000000    0.00000000
     atom    3 type  1   force =     0.00000000    0.00000000    0.00000000
     atom    4 type  1   force =     0.00000000    0.00000000    0.00000000
     The SCF correction term to forces
     atom    1 type  1   force =     0.00000000    0.00000000    0.00000000
     atom    2 type  1   force =     0.00000000   -0.00000000   -0.00000000
     atom    3 type  1   force =    -0.00000000    0.00000000    0.00000000
     atom    4 type  1   force =    -0.00000000    0.00000000   -0.00000000

     DFT-D3 dispersion contribution to forces:
     atom    1 type  1   force =     0.00000001   -0.00000000   -0.00000000
     atom    2 type  1   force =     0.00000002   -0.00000002   -0.00000000
     atom    3 type  1   force =    -0.00000003    0.00000001    0.00000000
     atom    4 type  1   force =    -0.00000001    0.00000001    0.00000000

     Total force =     0.000102     Total SCF correction =     0.000000

     DFT-D3 dispersion Force =     0.000000

     Computing stress (Cartesian axis) and pressure

          total   stress  (Ry/bohr**3)                   (kbar)     P=       -0.09
  -0.00000088  -0.00000031  -0.00000000           -0.13       -0.05       -0.00
  -0.00000031  -0.00000124  -0.00000000           -0.05       -0.18       -0.00
  -0.00000000  -0.00000000   0.00000020           -0.00       -0.00        0.03

     kinetic stress (kbar)  12826.34      0.02     -0.00
                                0.02  12826.37      0.00
                               -0.00      0.00  14179.35

     local   stress (kbar) -20811.71      0.35      0.00
                                0.35 -20811.30     -0.00
                                0.00     -0.00  24658.19

     nonloc. stress (kbar)  -1304.09      0.01      0.00
                                0.01  -1304.08     -0.00
                                0.00     -0.00  -1100.08

     hartree stress (kbar)   7779.48     -0.05      0.00
                               -0.05   7779.42      0.00
                                0.00      0.00  -6798.45

     exc-cor stress (kbar)  -1018.23     -0.00     -0.00
                               -0.00  -1018.24     -0.00
                               -0.00     -0.00  -1133.43

     corecor stress (kbar)  -1931.80      0.00     -0.00
                                0.00  -1931.79      0.00
                               -0.00      0.00  -1886.05

     ewald   stress (kbar)   4461.59     -0.38      0.00
                               -0.38   4461.15      0.00
                                0.00      0.00 -27899.41

     hubbard stress (kbar)      0.00      0.00      0.00
                                0.00      0.00      0.00
                                0.00      0.00      0.00

     DFT-D   stress (kbar)     -1.70     -0.00     -0.00
                               -0.00     -1.70      0.00
                               -0.00      0.00    -20.08

     XDM     stress (kbar)      0.00      0.00      0.00
                                0.00      0.00      0.00
                                0.00      0.00      0.00

     dft-nl  stress (kbar)      0.00      0.00      0.00
                                0.00      0.00      0.00
                                0.00      0.00      0.00

     TS-vdW  stress (kbar)      0.00      0.00      0.00
                                0.00      0.00      0.00
                                0.00      0.00      0.00

[...]

                                0.00      0.00      0.00

     Writing output data file ./c.save/

     General routines

   This run was terminated on:  14:44:15  24Oct2021

   JOB DONE.